tutorial/tutorial_05_ip modeling_20251126/tatham/instance/tatham.mps
* Signature: 0xd7e2b367139710b5
NAME Tatham
OBJSENSE MAX
ROWS
 N  OBJ
 L  Budget  
COLUMNS
    MARKER    'MARKER'                 'INTORG'
    Investment_1  OBJ       16000
    Investment_1  Budget    5000
    Investment_2  OBJ       8000
    Investment_2  Budget    2500
    Investment_3  OBJ       10000
    Investment_3  Budget    3500
    Investment_4  OBJ       19500
    Investment_4  Budget    6000
    Investment_5  OBJ       22000
    Investment_5  Budget    7000
    Investment_6  OBJ       12000
    Investment_6  Budget    4500
    Investment_7  OBJ       7500
    Investment_7  Budget    3000
    MARKER    'MARKER'                 'INTEND'
RHS
    RHS1      Budget    15000
BOUNDS
 BV BND1      Investment_1
 BV BND1      Investment_2
 BV BND1      Investment_3
 BV BND1      Investment_4
 BV BND1      Investment_5
 BV BND1      Investment_6
 BV BND1      Investment_7
ENDATA
